c description: Random 3-CNF over 12 variables and 36 clauses
p cnf 12 36
-6 11 -12 0
1 2 -9 0
9 10 11 0
-4 10 11 0
-5 8 12 0
-1 2 -5 0
6 -8 12 0
2 -5 8 0
5 -6 -8 0
3 4 -10 0
-2 4 11 0
3 10 -12 0
-9 10 -12 0
5 -9 -10 0
3 -5 11 0
2 4 7 0
-1 -4 9 0
-3 -5 -7 0
-6 9 -10 0
5 7 -11 0
-5 6 -9 0
-1 2 8 0
3 5 -10 0
2 -7 -11 0
-1 5 -7 0
-9 -11 12 0
2 -6 12 0
2 7 9 0
-4 5 -10 0
-3 -4 -8 0
1 -2 -6 0
-2 8 12 0
3 5 9 0
-2 8 10 0
2 9 10 0
3 -8 11 0